\ Model lot_release
\ LP format - for model browsing. Use MPS format to capture full model detail.
Minimize
  300 x[1] + 300 x[2] + 300 x[3] + 300 x[4] + 300 x[5] + 300 x[6] + 300 x[7]
   + 300 x[8] + 300 x[9] + 300 x[10] + 300 x[11] + 300 x[12] + 300 x[13]
   + 300 x[14] + 300 x[15] + 300 x[16] + 300 x[17] + 300 x[18] + 300 x[19]
   + 300 x[20] + 300 x[21] + 300 x[22] + 300 x[23] + 300 x[24] + 300 x[25]
   + 300 x[26] + I[1] + I[2] + I[3] + I[4] + I[5] + I[6] + I[7] + I[8]
   + I[9] + I[10] + I[11] + I[12] + I[13] + I[14] + I[15] + I[16] + I[17]
   + I[18] + I[19] + I[20] + I[21] + I[22] + I[23] + I[24] + I[25] + I[26]
Subject To
 R0: - Q[1] + I[1] = 50
 R1: - Q[2] - I[1] + I[2] = -60
 R2: - Q[3] - I[2] + I[3] = -70
 R3: - Q[4] - I[3] + I[4] = -70
 R4: - Q[5] - I[4] + I[5] = -70
 R5: - Q[6] - I[5] + I[6] = -70
 R6: - Q[7] - I[6] + I[7] = -70
 R7: - Q[8] - I[7] + I[8] = -70
 R8: - Q[9] - I[8] + I[9] = -70
 R9: - Q[10] - I[9] + I[10] = -70
 R10: - Q[11] - I[10] + I[11] = -60
 R11: - Q[12] - I[11] + I[12] = -50
 R12: - Q[13] - I[12] + I[13] = -50
 R13: - Q[14] - I[13] + I[14] = -50
 R14: - Q[15] - I[14] + I[15] = -50
 R15: - Q[16] - I[15] + I[16] = -60
 R16: - Q[17] - I[16] + I[17] = -70
 R17: - Q[18] - I[17] + I[18] = -70
 R18: - Q[19] - I[18] + I[19] = -70
 R19: - Q[20] - I[19] + I[20] = -70
 R20: - Q[21] - I[20] + I[21] = -70
 R21: - Q[22] - I[21] + I[22] = -80
 R22: - Q[23] - I[22] + I[23] = -80
 R23: - Q[24] - I[23] + I[24] = -80
 R24: - Q[25] - I[24] + I[25] = -80
 R25: Q[26] + I[25] = 230
 R26: I[1] >= 0
 R27: I[2] >= 0
 R28: I[3] >= 0
 R29: I[4] >= 0
 R30: I[5] >= 0
 R31: I[6] >= 0
 R32: I[7] >= 0
 R33: I[8] >= 0
 R34: I[9] >= 0
 R35: I[10] >= 0
 R36: I[11] >= 0
 R37: I[12] >= 0
 R38: I[13] >= 0
 R39: I[14] >= 0
 R40: I[15] >= 0
 R41: I[16] >= 0
 R42: I[17] >= 0
 R43: I[18] >= 0
 R44: I[19] >= 0
 R45: I[20] >= 0
 R46: I[21] >= 0
 R47: I[22] >= 0
 R48: I[23] >= 0
 R49: I[24] >= 0
 R50: I[25] >= 0
 R51: I[26] >= 0
 R52: Q[1] - 250 x[1] <= 0
 R53: Q[2] - 250 x[2] <= 0
 R54: Q[3] - 250 x[3] <= 0
 R55: Q[4] - 250 x[4] <= 0
 R56: Q[5] - 250 x[5] <= 0
 R57: Q[6] - 250 x[6] <= 0
 R58: Q[7] - 250 x[7] <= 0
 R59: Q[8] - 250 x[8] <= 0
 R60: Q[9] - 250 x[9] <= 0
 R61: Q[10] - 250 x[10] <= 0
 R62: Q[11] - 250 x[11] <= 0
 R63: Q[12] - 250 x[12] <= 0
 R64: Q[13] - 250 x[13] <= 0
 R65: Q[14] - 250 x[14] <= 0
 R66: Q[15] - 250 x[15] <= 0
 R67: Q[16] - 250 x[16] <= 0
 R68: Q[17] - 250 x[17] <= 0
 R69: Q[18] - 250 x[18] <= 0
 R70: Q[19] - 250 x[19] <= 0
 R71: Q[20] - 250 x[20] <= 0
 R72: Q[21] - 250 x[21] <= 0
 R73: Q[22] - 250 x[22] <= 0
 R74: Q[23] - 250 x[23] <= 0
 R75: Q[24] - 250 x[24] <= 0
 R76: Q[25] - 250 x[25] <= 0
 R77: Q[26] - 250 x[26] <= 0
 R78: Q[1] <= 200
 R79: Q[2] <= 200
 R80: Q[3] <= 200
 R81: Q[4] <= 200
 R82: Q[5] <= 200
 R83: Q[6] <= 200
 R84: Q[7] <= 0
 R85: Q[8] <= 220
 R86: Q[9] <= 220
 R87: Q[10] <= 220
 R88: Q[11] <= 220
 R89: Q[12] <= 220
 R90: Q[13] <= 220
 R91: Q[14] <= 160
 R92: Q[15] <= 50
 R93: Q[16] <= 250
 R94: Q[17] <= 250
 R95: Q[18] <= 250
 R96: Q[19] <= 250
 R97: Q[20] <= 250
 R98: Q[21] <= 250
 R99: Q[22] <= 100
 R100: Q[23] <= 230
 R101: Q[24] <= 230
 R102: Q[25] <= 230
 R103: Q[26] <= 150
Bounds
Binaries
 x[1] x[2] x[3] x[4] x[5] x[6] x[7] x[8] x[9] x[10] x[11] x[12] x[13] x[14]
 x[15] x[16] x[17] x[18] x[19] x[20] x[21] x[22] x[23] x[24] x[25] x[26]
End
